#######################################
### Exact MIP solver for the HHCRSP ###
#######################################
-- Instance file: new-instances/HHCRSP_400_80_18_0.4_R_C.txt
-- Max threads: 4
-- Time limit: 999999 seconds
-- Use initial solution: No
Trivial flow violations prevented generating 2730889 variables.
Version identifier: 20.1.0.0 | 2020-11-10 | 9bedb6d68
CPXPARAM_Threads                                 4
CPXPARAM_Emphasis_Memory                         1
CPXPARAM_TimeLimit                               999999
Tried aggregator 1 time.
Presolve has eliminated 83676 rows and 19572 columns...
LP Presolve eliminated 83676 rows and 19572 columns.
Reduced LP has 3080818 rows, 2920591 columns, and 89486544 nonzeros.
Presolve time = 91.33 sec. (19018.75 ticks)
Compression time = 22.77 sec. (5.82 ticks)
Compression reduced 1286.74 MB A matrix to 386.69 MB
Symmetry aggregator did 5264238 additional substitutions.
Initializing dual steep norms . . .
Elapsed time = 115.55 sec. (19752.18 ticks, 1 iterations)

Iteration log . . .
Iteration:     1   Dual objective     =             0.000000
Iteration:  1819   Dual objective     =           437.666667

Dual crossover.
  Dual:  Fixing 2701 variables.
     2700 DMoves:  Infeasibility  2.70811152e-12  Objective  4.38333333e+02
        0 DMoves:  Infeasibility  1.15984075e-12  Objective  4.38333333e+02
  Dual:  Pushed 54, exchanged 2647.
  Primal:  Fixing 2815 variables.
     2814 PMoves:  Infeasibility  6.73072709e-16  Objective  4.38333333e+02
        0 PMoves:  Infeasibility  3.11556336e-15  Objective  4.38333333e+02
  Primal:  Pushed 2593, exchanged 222.

Solution status from MIP model:
-- Processing time: 155.8 sec.
-- Memory used: 1991.15 MB
-- Best bound: inf
-- Obj value: 438.333
-- Gap: inf%
-- Total distance: 1315
-- Total tardiness: 0
-- Largest tardiness: 0
